RT is False
Default write of storage_offers_DA.csv just to have a file (but constraint should be inactive)
Reading model...
...model read.
creating competitive generators file...
...competitive generators recorded.
Loading data...
.. day-ahead data with real-time VRE data read.
Compiling instance...
...instance created.
Creating Offer Mitigation (model will solve as dispatch if TRUE)...
Solving...

Welcome to IBM(R) ILOG(R) CPLEX(R) Interactive Optimizer 12.9.0.0
  with Simplex, Mixed Integer & Barrier Optimizers
5725-A06 5725-A29 5724-Y48 5724-Y49 5724-Y54 5724-Y55 5655-Y21
Copyright IBM Corp. 1988, 2019.  All Rights Reserved.

Type 'help' for a list of available commands.
Type 'help' followed by a command name for more
information on commands.

CPLEX> Logfile 'cplex.log' closed.
Logfile 'C:\Users\llavin\Desktop\test919\logs\tmpzq2hegvm.cplex.log' open.
CPLEX> New value for parallel optimization mode: -1
CPLEX> New value for mixed integer optimality gap tolerance: 0.01
CPLEX> New value for integrality tolerance: 1e-09
CPLEX> New value for feasibility tolerance: 0.01
CPLEX> New value for deterministic time limit in ticks: 75000
CPLEX> Problem 'C:\Users\llavin\Desktop\test919\logs\tmpze1nfl31.pyomo.lp' read.
Read time = 0.05 sec. (3.04 ticks)
CPLEX> Problem name         : C:\Users\llavin\Desktop\test919\logs\tmpze1nfl31.pyomo.lp
Objective sense      : Minimize
Variables            :   26081  [Nneg: 1,  Box: 21616,  Free: 4464]
Objective nonzeros   :    2496
Linear constraints   :   27515  [Less: 14006,  Greater: 4416,  Equal: 9093]
  Nonzeros           :   89267
  RHS nonzeros       :   12271

Variables            : Min LB: -5000.000        Max UB: 1000000.       
Objective nonzeros   : Min   : 15.73158         Max   : 124.0997       
Linear constraints   :
  Nonzeros           : Min   : 0.8500000        Max   : 3000.000       
  RHS nonzeros       : Min   : 0.3583333        Max   : 5000.000       
CPLEX> CPXPARAM_Parallel                                -1
CPXPARAM_Simplex_Tolerances_Feasibility          0.01
CPXPARAM_DetTimeLimit                            75000
CPXPARAM_MIP_Tolerances_MIPGap                   0.01
CPXPARAM_MIP_Tolerances_Integrality              1.0000000000000001e-09
Parallel mode: opportunistic, using up to 32 threads for concurrent optimization.
Tried aggregator 1 time.
LP Presolve eliminated 21353 rows and 15463 columns.
Aggregator did 773 substitutions.
Reduced LP has 5389 rows, 9845 columns, and 31806 nonzeros.
Presolve time = 0.05 sec. (30.45 ticks)
Symmetry aggregator did 5563 additional substitutions.

Iteration log . . .
Iteration:     1   Dual objective     =             0.000000
Perturbation started.
Iteration:   101   Dual objective     =             0.000000
Iteration:   335   Dual objective     =             1.229895
Iteration:   593   Dual objective     =             1.753815
Iteration:   851   Dual objective     =             1.889899
Iteration:  1067   Dual objective     =             2.005130
Iteration:  1336   Dual objective     =             2.051102
Iteration:  1580   Dual objective     =             2.080001
Iteration:  1799   Dual objective     =          1641.011937
Iteration:  1997   Dual objective     =         46679.300240
Iteration:  2189   Dual objective     =         55148.799684
Iteration:  2429   Dual objective     =         60669.608990
Iteration:  2705   Dual objective     =         64255.955307
Iteration:  3108   Dual objective     =         65186.982841
Removing perturbation.
Dual superbasis not built.
Using devex.

Primal simplex solved model.


Primal simplex - Optimal:  Objective =  6.5184823383e+04
Solution time =    0.16 sec.  Iterations = 1577 (1021)
Deterministic time = 79.73 ticks  (511.08 ticks/sec)

CPLEX> Solution written to file 'C:\Users\llavin\Desktop\test919\logs\tmpdi9f7wr3.cplex.sol'.
CPLEX> Exporting results... 
...storage offer mitigation file created
Converting model to MPEC...
...converted
NOTE: initial MIP solve with only storage competitive to get feasible solution
Solving...

Welcome to IBM(R) ILOG(R) CPLEX(R) Interactive Optimizer 12.9.0.0
  with Simplex, Mixed Integer & Barrier Optimizers
5725-A06 5725-A29 5724-Y48 5724-Y49 5724-Y54 5724-Y55 5655-Y21
Copyright IBM Corp. 1988, 2019.  All Rights Reserved.

Type 'help' for a list of available commands.
Type 'help' followed by a command name for more
information on commands.

CPLEX> Logfile 'cplex.log' closed.
Logfile 'C:\Users\llavin\Desktop\test919\logs\tmpb_y80yra.cplex.log' open.
CPLEX> New value for parallel optimization mode: -1
CPLEX> New value for mixed integer optimality gap tolerance: 0.01
CPLEX> New value for integrality tolerance: 1e-09
CPLEX> New value for feasibility tolerance: 0.01
CPLEX> New value for deterministic time limit in ticks: 75000
CPLEX> Problem 'C:\Users\llavin\Desktop\test919\logs\tmpur3gx7bt.pyomo.lp' read.
Read time = 0.23 sec. (14.78 ticks)
CPLEX> Problem name         : C:\Users\llavin\Desktop\test919\logs\tmpur3gx7bt.pyomo.lp
Objective sense      : Maximize
Variables            :   53805  [Nneg: 1,  Box: 22000,  Free: 4464,
                                 Binary: 27340]
Objective nonzeros   :    8980
Linear constraints   :  123205  [Less: 41346,  Greater: 59096,  Equal: 22763]
  Nonzeros           :  291801
  RHS nonzeros       :   67423

Variables            : Min LB: -5000.000        Max UB: 1000000.       
Objective nonzeros   : Min   : 0.3583333        Max   : 784.0167       
Linear constraints   :
  Nonzeros           : Min   : 0.3583333        Max   : 1000000.       
  RHS nonzeros       : Min   : 0.3583333        Max   : 1000000.       
CPLEX> CPXPARAM_Parallel                                -1
CPXPARAM_Simplex_Tolerances_Feasibility          0.01
CPXPARAM_DetTimeLimit                            75000
CPXPARAM_MIP_Tolerances_MIPGap                   0.01
CPXPARAM_MIP_Tolerances_Integrality              1.0000000000000001e-09
Tried aggregator 3 times.
MIP Presolve eliminated 88626 rows and 18926 columns.
MIP Presolve added 3384 rows and 0 columns.
MIP Presolve modified 24887 coefficients.
Aggregator did 12999 substitutions.
Reduced MIP has 24964 rows, 21324 columns, and 71227 nonzeros.
Reduced MIP has 8419 binaries, 0 generals, 0 SOSs, and 0 indicators.
Presolve time = 0.30 sec. (173.72 ticks)
Probing fixed 403 vars, tightened 2834 bounds.
Probing time = 1.27 sec. (907.45 ticks)
Tried aggregator 2 times.
MIP Presolve eliminated 904 rows and 807 columns.
MIP Presolve modified 2192 coefficients.
Aggregator did 43 substitutions.
Reduced MIP has 24017 rows, 20474 columns, and 68478 nonzeros.
Reduced MIP has 8016 binaries, 0 generals, 0 SOSs, and 0 indicators.
Presolve time = 0.11 sec. (68.03 ticks)
Probing time = 0.05 sec. (15.80 ticks)
Clique table members: 6466.
MIP emphasis: balance optimality and feasibility.
MIP search method: dynamic search.
Parallel mode: opportunistic, using up to 32 threads.
Root relaxation solution time = 0.42 sec. (315.74 ticks)

        Nodes                                         Cuts/
   Node  Left     Objective  IInf  Best Integer    Best Bound    ItCnt     Gap

      0     0     7253.2655  1647                   7253.2655     7643         
      0     0     7253.2655    16                    Cuts: 25     7652         
      0     0     7253.2655    16                Flowcuts: 21     7658         
      0     0     7253.2655    13                Flowcuts: 19     7666         
      0     0     7238.0553    15                 Flowcuts: 8     7674         
      0     0     7231.2442    16                    Cuts: 11     7682         
      0     0     7231.2442    16                     Cuts: 5     7684         
      0     2     7231.2442    16                     Cuts: 2     7684         
Elapsed time = 9.30 sec. (5098.31 ticks, tree = 0.02 MB, solutions = 0)
    554   145     7119.6119     9                   7206.7676    11750         
   1135   419     7071.6255     4                   7206.7676    19427         
*  1369+  433                         6969.0115     7206.7676             3.41%
*  1740   450      integral     0     7174.8057     7206.7676    35018    0.45%
   2173   467     7062.4539     3     7174.8057     7206.7676    34540    0.45%
   2248   466     7068.0803    10     7174.8057     7206.7676    35511    0.45%

Flow cuts applied:  27
Gomory fractional cuts applied:  7

Root node processing (before b&c):
  Real time             =    7.67 sec. (5065.79 ticks)
Parallel b&c, 32 threads:
  Real time             =    5.95 sec. (1274.50 ticks)
  Sync time (average)   =    0.48 sec.
  Wait time (average)   =    0.00 sec.
                          ------------
Total (root+branch&cut) =   13.63 sec. (6340.29 ticks)

Solution pool: 2 solutions saved.

MIP - Integer optimal, tolerance (0.01/1e-06):  Objective =  7.1748057447e+03
Current MIP best bound =  7.2067675873e+03 (gap = 31.9618, 0.45%)
Solution time =   13.64 sec.  Iterations = 38270  Nodes = 2250 (38)
Deterministic time = 6340.45 ticks  (464.84 ticks/sec)

CPLEX> Incumbent solution written to file 'C:\Users\llavin\Desktop\test919\logs\tmpu4bp8shg.cplex.sol'.
CPLEX> NOTE: no warmstart specified for MIP iteration, default behavior is true
NOTE: resolving with all competitive generators using storage-only solution to warmstart
Solving...

Welcome to IBM(R) ILOG(R) CPLEX(R) Interactive Optimizer 12.9.0.0
  with Simplex, Mixed Integer & Barrier Optimizers
5725-A06 5725-A29 5724-Y48 5724-Y49 5724-Y54 5724-Y55 5655-Y21
Copyright IBM Corp. 1988, 2019.  All Rights Reserved.

Type 'help' for a list of available commands.
Type 'help' followed by a command name for more
information on commands.

CPLEX> Logfile 'cplex.log' closed.
Logfile 'C:\Users\llavin\Desktop\test919\logs\tmpp60vhlrf.cplex.log' open.
CPLEX> New value for parallel optimization mode: -1
CPLEX> New value for mixed integer optimality gap tolerance: 0.01
CPLEX> New value for integrality tolerance: 1e-09
CPLEX> New value for feasibility tolerance: 0.01
CPLEX> New value for deterministic time limit in ticks: 75000
CPLEX> Problem 'C:\Users\llavin\Desktop\test919\logs\tmp2akdvab5.pyomo.lp' read.
Read time = 0.23 sec. (14.81 ticks)
CPLEX> MIP start file 'C:\Users\llavin\Desktop\test919\logs\tmpynuas6vf.cplex.mst' read.
CPLEX> Problem name         : C:\Users\llavin\Desktop\test919\logs\tmp2akdvab5.pyomo.lp
Objective sense      : Maximize
Variables            :   54525  [Nneg: 1,  Box: 22720,  Free: 4464,
                                 Binary: 27340]
Objective nonzeros   :    9676
Linear constraints   :  123205  [Less: 41346,  Greater: 59096,  Equal: 22763]
  Nonzeros           :  291801
  RHS nonzeros       :   67423

Variables            : Min LB: -5000.000        Max UB: 1000000.       
Objective nonzeros   : Min   : 0.3583333        Max   : 784.0167       
Linear constraints   :
  Nonzeros           : Min   : 0.3583333        Max   : 1000000.       
  RHS nonzeros       : Min   : 0.3583333        Max   : 1000000.       
CPLEX> CPXPARAM_Parallel                                -1
CPXPARAM_Simplex_Tolerances_Feasibility          0.01
CPXPARAM_DetTimeLimit                            75000
CPXPARAM_MIP_Tolerances_MIPGap                   0.01
CPXPARAM_MIP_Tolerances_Integrality              1.0000000000000001e-09
Warning:  No solution found from 1 MIP starts.
Retaining values of one MIP start for possible repair.
Tried aggregator 3 times.
MIP Presolve eliminated 88626 rows and 19646 columns.
MIP Presolve added 3384 rows and 0 columns.
MIP Presolve modified 24887 coefficients.
Aggregator did 12999 substitutions.
Reduced MIP has 24964 rows, 21324 columns, and 71227 nonzeros.
Reduced MIP has 8419 binaries, 0 generals, 0 SOSs, and 0 indicators.
Presolve time = 0.30 sec. (174.07 ticks)
Probing fixed 403 vars, tightened 2834 bounds.
Probing time = 1.27 sec. (907.45 ticks)
Tried aggregator 2 times.
MIP Presolve eliminated 904 rows and 807 columns.
MIP Presolve modified 2192 coefficients.
Aggregator did 43 substitutions.
Reduced MIP has 24017 rows, 20474 columns, and 68478 nonzeros.
Reduced MIP has 8016 binaries, 0 generals, 0 SOSs, and 0 indicators.
Presolve time = 0.11 sec. (68.03 ticks)
Probing time = 0.05 sec. (15.80 ticks)
Clique table members: 6466.
MIP emphasis: balance optimality and feasibility.
MIP search method: dynamic search.
Parallel mode: opportunistic, using up to 32 threads.
Root relaxation solution time = 0.38 sec. (288.43 ticks)

        Nodes                                         Cuts/
   Node  Left     Objective  IInf  Best Integer    Best Bound    ItCnt     Gap

      0     0   108283.6928  1826                 108283.6928     6473         
      0     0   106164.6055   695                   Cuts: 578     6786         
      0     0   105966.4719   590                   Cuts: 246     6943         
      0     0   105858.1596   581                   Cuts: 127     7014         
      0     0   105807.3567   548                    Cuts: 91     7057         
      0     0   105792.3993   528                    Cuts: 92     7096         
      0     0   105784.9173   514                    Cuts: 42     7115         
      0     0   105784.9173   502                    Cuts: 40     7127         
      0     0   105784.9173   496                    Cuts: 21     7134         
      0     0   105784.9173   496                    Cuts: 13     7134         
Repair heuristic found nothing.
      0     2   105784.9173   496                    Cuts: 23     7134         
Elapsed time = 11.27 sec. (6275.67 ticks, tree = 0.02 MB, solutions = 0)
    269    52   100572.4718   450                 104122.5917     8297         
    763   472    95453.1172   435                 104122.5917    15192         
   1239   787    infeasible                       104122.5917    26424         
   1817   848    96158.7065   415                 104122.5917    32458         
   2328  1068    94659.9974   426                 104122.5917    39377         
   3081  1457    89810.6714   378                 104122.5917    47741         
   4196  1824    83972.7720   377                 104122.5917    52077         
   5333  2455    71925.8346   338                 104122.5917    57042         
   6119  4349    70743.5002   329                 104122.5917    59487         
  10531  7109    83308.8568   323                 104122.5917    63612         
Elapsed time = 28.63 sec. (9380.11 ticks, tree = 196.04 MB, solutions = 0)
* 12872+ 9812                        65409.5574   104122.5917            59.19%
* 13796  9643      integral     0    87771.9724   104122.5917    63957   18.63%
  14111  2679    95941.7873   230    87771.9724    96026.5858    78025    9.40%

GUB cover cuts applied:  1
Clique cuts applied:  16
Cover cuts applied:  46
Implied bound cuts applied:  37
Flow cuts applied:  1090
Mixed integer rounding cuts applied:  217
Gomory fractional cuts applied:  121

Root node processing (before b&c):
  Real time             =    9.23 sec. (6231.99 ticks)
Parallel b&c, 32 threads:
  Real time             =   35.72 sec. (11313.66 ticks)
  Sync time (average)   =    2.06 sec.
  Wait time (average)   =    0.25 sec.
                          ------------
Total (root+branch&cut) =   44.95 sec. (17545.65 ticks)

Solution pool: 8 solutions saved.

MIP - Integer optimal, tolerance (0.01/1e-06):  Objective =  8.7771972373e+04
Current MIP best bound =  8.8547962023e+04 (gap = 775.99, 0.88%)
Solution time =   44.97 sec.  Iterations = 78337  Nodes = 14121 (446)
Deterministic time = 17545.81 ticks  (390.18 ticks/sec)

CPLEX> Incumbent solution written to file 'C:\Users\llavin\Desktop\test919\logs\tmp1s79zmn1.cplex.sol'.
CPLEX> Exporting results... 
